n_machines = 5;
n_resources = 6;
n_jobs = 60;
horizon = 283;
LB = 71;
n_jobs_per_resource = [10, 10, 10, 10, 10, 10];
duration = [2, 1, 1, 9, 2, 3, 4, 7, 1, 3, 9, 8, 8, 8, 5, 4, 9, 8, 6, 6, 6, 9, 3, 8, 5, 6, 7, 4, 3, 1, 5, 1, 1, 4, 4, 5, 1, 9, 7, 3, 7, 2, 5, 4, 1, 3, 4, 2, 3, 7, 8, 1, 2, 9, 8, 7, 1, 4, 2, 7]